WARNING: for repeatability, setting FPU to use double precision
============================[ Problem Statistics ]=============================
|                                                                             |
|  Number of variables:           100                                         |
|  Number of clauses:             449                                         |
|  Parse time:                   0.00 s                                       |
|  Eliminated clauses:           0.00 Mb                                      |
|  Simplification time:          0.00 s                                       |
|                                                                             |
============================[ Search Statistics ]==============================
| Conflicts |          ORIGINAL         |          LEARNT          | Progress |
|           |    Vars  Clauses Literals |    Limit  Clauses Lit/Cl |          |
===============================================================================
|       100 |      99      448     1351 |      164      100      6 |  0.010 % |
===============================================================================
restarts              : 2
conflicts             : 104            (44482 /sec)
decisions             : 142            (0.00 % random) (60736 /sec)
propagations          : 2311           (988452 /sec)
conflict literals     : 648            (15.07 % deleted)
Memory used           : 13.00 MB
CPU time              : 0.002338 s

SATISFIABLE
